484 116
26 163
229 482
272 379
263 308
102 150
323 346
365 485
35 344
111 287
414 461
52 324
392 472
328 141
468 98
408 432
228 250
447 341
277 367
155 322
217 296
393 247
352 432
110 262
117 149
313 394
25 307
483 338
137 98
165 424
79 337
298 22
267 3
134 191